p edge 92
e 0 6
e 0 17
e 0 43
e 0 69
e 0 75
e 1 3
e 1 26
e 1 30
e 1 68
e 1 80
e 2 39
e 2 64
e 2 85
e 2 88
e 3 30
e 3 33
e 3 34
e 3 41
e 3 80
e 3 81
e 4 8
e 4 11
e 4 23
e 4 31
e 4 32
e 4 40
e 4 48
e 4 49
e 4 55
e 5 6
e 5 51
e 5 59
e 5 87
e 6 43
e 6 51
e 6 59
e 7 35
e 7 56
e 7 58
e 7 71
e 7 73
e 8 23
e 8 32
e 8 60
e 8 82
e 9 39
e 9 46
e 9 52
e 9 63
e 9 90
e 10 45
e 10 65
e 10 85
e 11 15
e 11 32
e 11 40
e 11 74
e 11 84
e 12 46
e 12 54
e 12 63
e 13 18
e 13 36
e 13 49
e 13 51
e 13 75
e 13 87
e 14 34
e 14 41
e 14 60
e 14 71
e 14 82
e 15 38
e 15 40
e 15 55
e 15 84
e 16 19
e 16 77
e 16 86
e 16 91
e 17 43
e 17 47
e 17 58
e 17 69
e 17 70
e 18 22
e 18 36
e 18 50
e 18 87
e 18 89
e 19 33
e 19 35
e 19 77
e 19 81
e 19 86
e 20 26
e 20 62
e 20 64
e 20 65
e 20 68
e 20 85
e 21 24
e 21 27
e 21 63
e 21 77
e 21 91
e 22 44
e 22 50
e 23 31
e 23 69
e 23 70
e 23 82
e 24 54
e 24 63
e 24 72
e 24 91
e 25 45
e 25 65
e 25 67
e 26 30
e 26 39
e 26 42
e 26 64
e 26 68
e 27 42
e 27 52
e 27 63
e 27 77
e 28 37
e 28 66
e 28 74
e 28 84
e 29 34
e 29 62
e 29 68
e 29 78
e 29 80
e 29 83
e 30 42
e 30 77
e 30 81
e 31 49
e 31 69
e 31 75
e 32 60
e 32 74
e 32 83
e 33 35
e 33 41
e 33 71
e 33 81
e 34 41
e 34 60
e 34 80
e 34 83
e 35 71
e 35 73
e 35 86
e 36 48
e 36 49
e 36 50
e 37 66
e 37 67
e 37 74
e 37 78
e 38 50
e 38 55
e 39 42
e 39 52
e 39 64
e 39 88
e 39 90
e 40 55
e 41 71
e 42 52
e 42 77
e 43 47
e 43 53
e 43 57
e 43 76
e 44 89
e 45 65
e 46 63
e 47 53
e 47 56
e 47 58
e 48 49
e 48 50
e 48 55
e 49 75
e 50 55
e 51 75
e 51 87
e 52 63
e 53 57
e 54 63
e 54 72
e 54 79
e 56 58
e 56 73
e 57 76
e 58 70
e 58 71
e 58 82
e 59 76
e 60 82
e 60 83
e 61 72
e 61 79
e 62 65
e 62 67
e 62 68
e 62 78
e 64 85
e 65 67
e 65 85
e 66 67
e 67 78
e 68 80
e 69 70
e 69 75
e 70 82
e 71 82
e 72 79
e 72 91
e 73 86
e 74 78
e 74 83
e 74 84
e 77 81
e 77 91
e 78 83
e 87 89
e 88 90
c k 9
